NAME: line_100_8
TYPE: TSP
COMMENT: line_100_8
DIMENSION: 100
EDGE_WEIGHT_TYPE: EUC_2D
NODE_COORD_SECTION
1 0.0 575.0
2 0.0 890.0
3 0.0 454.0
4 0.0 146.0
5 0.0 21.0
6 0.0 93.0
7 0.0 15.0
8 0.0 454.0
9 0.0 640.0
10 0.0 647.0
11 0.0 483.0
12 0.0 105.0
13 0.0 130.0
14 0.0 642.0
15 0.0 652.0
16 0.0 744.0
17 0.0 289.0
18 0.0 983.0
19 0.0 939.0
20 0.0 496.0
21 0.0 458.0
22 0.0 630.0
23 0.0 406.0
24 0.0 213.0
25 0.0 485.0
26 0.0 397.0
27 0.0 848.0
28 0.0 258.0
29 0.0 931.0
30 0.0 815.0
31 0.0 678.0
32 0.0 104.0
33 0.0 86.0
34 0.0 834.0
35 0.0 846.0
36 0.0 210.0
37 0.0 28.0
38 0.0 639.0
39 0.0 771.0
40 0.0 51.0
41 0.0 283.0
42 0.0 768.0
43 0.0 387.0
44 0.0 587.0
45 0.0 911.0
46 0.0 568.0
47 0.0 275.0
48 0.0 770.0
49 0.0 54.0
50 0.0 530.0
51 0.0 200.0
52 0.0 467.0
53 0.0 458.0
54 0.0 358.0
55 0.0 894.0
56 0.0 107.0
57 0.0 705.0
58 0.0 264.0
59 0.0 768.0
60 0.0 530.0
61 0.0 45.0
62 0.0 832.0
63 0.0 861.0
64 0.0 504.0
65 0.0 972.0
66 0.0 496.0
67 0.0 113.0
68 0.0 920.0
69 0.0 387.0
70 0.0 35.0
71 0.0 999.0
72 0.0 432.0
73 0.0 502.0
74 0.0 297.0
75 0.0 617.0
76 0.0 232.0
77 0.0 112.0
78 0.0 677.0
79 0.0 708.0
80 0.0 142.0
81 0.0 549.0
82 0.0 685.0
83 0.0 604.0
84 0.0 709.0
85 0.0 418.0
86 0.0 945.0
87 0.0 9.0
88 0.0 115.0
89 0.0 146.0
90 0.0 739.0
91 0.0 768.0
92 0.0 284.0
93 0.0 933.0
94 0.0 358.0
95 0.0 640.0
96 0.0 446.0
97 0.0 585.0
98 0.0 121.0
99 0.0 738.0
100 0.0 860.0
